Route #1: 1 50 74 43 52 78 54 68 67 71 73 51 34 1
Route #2: 1 14 41 22 12 7 25 35 53 49 15 1
Route #3: 1 2 8 63 64 11 1
Route #4: 1 37 61 40 65 16 42 26 47 57 48 1
Route #5: 1 80 29 72 19 24 1
Route #6: 1 13 45 6 30 18 32 60 28 31 1
Route #7: 1 55 10 56 70 66 36 27 20 21 76 17 44 79 1
Route #8: 1 4 75 39 59 77 33 5 1
Route #9: 1 69 62 58 9 38 3 1
Route #10: 1 46 23 1
cost 2242
